200
1000
394
393
393
392
391
391
390
389
389
389
387
387
387
387
387
387
385
384
383
382
382
382
381
380
380
380
379
378
378
378
378
377
376
376
374
373
373
372
371
371
371
371
370
370
370
369
369
369
368
368
367
367
365
365
364
364
364
363
363
362
362
360
360
360
359
359
358
357
356
356
355
354
354
353
353
352
351
349
349
348
347
346
346
343
343
342
342
342
341
341
340
340
339
339
338
338
338
337
336
336
335
333
333
332
332
331
329
328
326
326
326
325
325
325
323
323
323
322
322
321
320
319
319
318
318
315
315
314
314
313
313
311
310
310
309
309
309
309
308
308
307
306
306
306
305
305
302
301
299
299
299
299
298
297
296
296
296
296
295
294
294
294
292
292
291
290
290
289
288
286
285
285
285
284
283
282
282
282
280
280
280
279
278
277
277
277
277
275
275
275
274
273
273
272
272
271
270
270
269
268
